DIMACS2
20 128 161 86 216 47 145 84 317 300 280 186 85 264 25 204 40 188 240 14 197
p edge 320 652
e 0 272 1.0
e 1 123 11.0
e 1 243 8.0
e 1 235 11.0
e 1 269 9.0
e 2 110 2.0
e 3 43 1.0
e 4 259 9.0
e 4 207 4.0
e 4 186 10.0
e 4 18 6.0
e 5 120 2.0
e 6 153 3.0
e 6 67 2.0
e 7 151 1.0
e 8 39 1.0
e 9 180 1.0
e 10 103 3.0
e 10 278 3.0
e 10 302 5.0
e 11 33 1.0
e 12 295 1.0
e 13 31 2.0
e 14 13 41.0
e 14 83 37.0
e 14 298 23.0
e 14 284 18.0
e 14 135 15.0
e 14 25 46.0
e 14 270 18.0
e 14 174 22.0
e 14 150 42.0
e 14 185 39.0
e 14 78 39.0
e 14 226 36.0
e 14 62 32.0
e 14 278 9.0
e 14 274 32.0
e 14 99 22.0
e 15 196 1.0
e 16 312 1.0
e 17 275 1.0
e 18 253 1.0
e 19 72 1.0
e 20 187 1.0
e 21 112 1.0
e 21 288 3.0
e 22 287 1.0
e 23 159 2.0
e 23 46 1.0
e 23 245 6.0
e 24 180 1.0
e 25 240 24.0
e 25 35 48.0
e 25 258 21.0
e 25 49 42.0
e 25 217 12.0
e 25 155 32.0
e 25 69 43.0
e 25 40 34.0
e 25 292 31.0
e 25 199 37.0
e 25 56 12.0
e 25 117 4.0
e 25 58 33.0
e 25 277 47.0
e 26 20 1.0
e 27 113 1.0
e 28 167 2.0
e 29 303 1.0
e 30 183 1.0
e 31 239 1.0
e 32 181 1.0
e 33 31 1.0
e 34 27 1.0
e 35 170 1.0
e 36 10 5.0
e 36 106 1.0
e 37 301 1.0
e 38 202 12.0
e 38 54 11.0
e 38 269 9.0
e 38 102 6.0
e 39 40 48.0
e 40 104 10.0
e 40 312 47.0
e 40 253 21.0
e 40 64 39.0
e 40 270 31.0
e 40 317 46.0
e 40 282 39.0
e 40 192 1.0
e 40 175 24.0
e 40 151 29.0
e 40 105 24.0
e 40 212 26.0
e 40 297 5.0
e 41 26 1.0
e 42 311 1.0
e 43 168 1.0
e 44 262 1.0
e 45 209 1.0
e 46 112 1.0
e 47 155 32.0
e 47 102 48.0
e 47 271 24.0
e 47 96 6.0
e 47 10 5.0
e 47 55 32.0
e 47 187 31.0
e 47 248 36.0
e 47 232 15.0
e 47 19 6.0
e 47 62 25.0
e 47 127 45.0
e 47 67 35.0
e 47 100 13.0
e 47 226 9.0
e 47 304 37.0
e 48 248 1.0
e 49 162 1.0
e 50 223 1.0
e 51 172 1.0
e 52 189 1.0
e 53 47 35.0
e 54 43 1.0
e 55 77 1.0
e 56 209 1.0
e 57 302 1.0
e 58 167 3.0
e 59 201 1.0
e 60 265 2.0
e 61 57 1.0
e 62 311 6.0
e 62 293 8.0
e 63 316 3.0
e 63 16 1.0
e 64 234 1.0
e 65 274 1.0
e 65 68 1.0
e 66 219 1.0
e 67 172 1.0
e 68 56 1.0
e 69 103 1.0
e 70 4 9.0
e 71 140 3.0
e 72 32 1.0
e 73 5 2.0
e 74 141 2.0
e 75 144 2.0
e 75 0 2.0
e 76 117 2.0
e 77 54 1.0
e 78 308 1.0
e 79 129 2.0
e 80 1 6.0
e 81 22 1.0
e 82 13 2.0
e 83 219 2.0
e 84 169 21.0
e 84 267 28.0
e 84 252 47.0
e 84 315 23.0
e 84 243 2.0
e 84 310 39.0
e 84 164 29.0
e 84 265 12.0
e 84 286 6.0
e 84 86 5.0
e 84 255 1.0
e 84 316 16.0
e 84 279 36.0
e 84 313 47.0
e 84 311 34.0
e 85 38 17.0
e 85 36 4.0
e 85 23 35.0
e 85 20 31.0
e 85 233 43.0
e 85 132 18.0
e 85 169 31.0
e 85 106 21.0
e 85 119 39.0
e 85 271 13.0
e 85 78 7.0
e 85 154 40.0
e 85 294 19.0
e 85 186 19.0
e 85 279 34.0
e 85 210 11.0
e 86 63 48.0
e 86 223 34.0
e 86 15 4.0
e 86 181 31.0
e 86 280 4.0
e 86 304 49.0
e 86 251 34.0
e 86 258 4.0
e 86 81 7.0
e 86 77 12.0
e 86 220 47.0
e 86 305 3.0
e 86 134 3.0
e 86 149 34.0
e 86 263 40.0
e 87 223 1.0
e 87 6 1.0
e 88 277 1.0
e 88 142 1.0
e 89 11 1.0
e 90 69 1.0
e 90 2 1.0
e 91 260 1.0
e 92 212 4.0
e 93 262 1.0
e 94 241 1.0
e 95 86 36.0
e 96 145 25.0
e 96 136 7.0
e 96 107 5.0
e 97 194 1.0
e 98 3 1.0
e 99 109 2.0
e 100 76 2.0
e 101 235 1.0
e 102 14 43.0
e 103 43 1.0
e 104 21 4.0
e 105 17 1.0
e 106 84 40.0
e 106 225 3.0
e 106 176 1.0
e 107 224 1.0
e 108 13 1.0
e 108 233 1.0
e 109 288 1.0
e 110 286 2.0
e 111 172 2.0
e 112 318 1.0
e 113 159 1.0
e 114 37 1.0
e 115 266 2.0
e 116 192 1.0
e 117 259 1.0
e 118 15 1.0
e 118 220 1.0
e 119 45 1.0
e 120 91 1.0
e 121 299 1.0
e 122 84 27.0
e 122 57 3.0
e 123 274 2.0
e 124 70 2.0
e 125 278 1.0
e 126 298 2.0
e 127 288 3.0
e 128 259 16.0
e 128 34 42.0
e 128 124 7.0
e 128 88 38.0
e 128 50 6.0
e 128 107 11.0
e 128 64 35.0
e 128 45 36.0
e 128 10 27.0
e 128 317 15.0
e 128 236 2.0
e 128 121 40.0
e 128 305 35.0
e 128 280 18.0
e 128 101 15.0
e 128 275 30.0
e 128 122 15.0
e 129 315 1.0
e 130 237 1.0
e 131 133 1.0
e 132 141 1.0
e 133 303 1.0
e 134 306 1.0
e 135 163 1.0
e 136 179 1.0
e 137 285 1.0
e 138 237 1.0
e 139 98 1.0
e 140 173 1.0
e 141 227 1.0
e 142 126 2.0
e 143 221 1.0
e 144 116 2.0
e 145 55 41.0
e 145 190 32.0
e 145 99 14.0
e 145 114 20.0
e 145 172 43.0
e 145 35 26.0
e 145 235 22.0
e 145 115 29.0
e 145 4 15.0
e 145 5 36.0
e 145 14 37.0
e 145 258 32.0
e 145 9 36.0
e 145 136 47.0
e 145 198 36.0
e 145 50 28.0
e 146 153 1.0
e 147 42 1.0
e 148 34 1.0
e 148 227 2.0
e 149 301 1.0
e 150 316 2.0
e 150 90 5.0
e 151 119 1.0
e 152 42 1.0
e 153 127 3.0
e 154 175 1.0
e 155 207 1.0
e 156 11 1.0
e 157 7 1.0
e 158 45 1.0
e 159 95 1.0
e 160 229 1.0
e 161 212 9.0
e 161 187 38.0
e 161 111 33.0
e 161 118 31.0
e 161 30 9.0
e 161 127 12.0
e 161 36 36.0
e 161 283 32.0
e 161 162 15.0
e 161 210 7.0
e 161 39 22.0
e 161 154 35.0
e 161 105 28.0
e 161 21 20.0
e 161 194 1.0
e 161 44 37.0
e 162 196 1.0
e 163 178 2.0
e 164 304 1.0
e 165 17 2.0
e 166 281 1.0
e 167 153 1.0
e 168 173 1.0
e 169 183 2.0
e 170 314 1.0
e 171 227 1.0
e 172 158 2.0
e 173 143 1.0
e 174 54 1.0
e 175 313 2.0
e 176 92 2.0
e 177 137 1.0
e 178 239 1.0
e 179 34 1.0
e 180 250 1.0
e 181 247 1.0
e 182 186 8.0
e 182 164 1.0
e 183 265 1.0
e 184 159 1.0
e 185 266 5.0
e 186 62 48.0
e 186 185 1.0
e 186 67 11.0
e 186 171 15.0
e 186 216 11.0
e 186 94 3.0
e 186 184 2.0
e 186 163 40.0
e 186 229 20.0
e 186 145 13.0
e 186 195 35.0
e 186 10 1.0
e 186 32 42.0
e 186 109 37.0
e 187 57 1.0
e 188 53 32.0
e 188 23 46.0
e 188 57 2.0
e 188 208 3.0
e 188 8 13.0
e 188 72 47.0
e 188 58 9.0
e 188 161 21.0
e 188 84 15.0
e 188 203 24.0
e 188 240 43.0
e 188 60 23.0
e 188 173 14.0
e 188 128 35.0
e 188 212 1.0
e 189 37 1.0
e 190 233 2.0
e 191 189 1.0
e 192 298 1.0
e 193 282 1.0
e 193 238 1.0
e 194 171 1.0
e 195 161 35.0
e 195 216 48.0
e 196 27 1.0
e 197 6 39.0
e 197 296 42.0
e 197 22 19.0
e 197 234 18.0
e 197 209 10.0
e 197 28 25.0
e 197 184 36.0
e 197 104 48.0
e 197 128 18.0
e 197 21 5.0
e 197 218 40.0
e 197 98 21.0
e 197 92 17.0
e 197 185 28.0
e 197 293 41.0
e 197 112 31.0
e 197 239 39.0
e 198 224 1.0
e 199 100 2.0
e 200 127 1.0
e 201 262 1.0
e 202 249 1.0
e 203 109 2.0
e 204 125 20.0
e 204 15 31.0
e 204 225 17.0
e 204 296 36.0
e 204 306 2.0
e 204 312 38.0
e 204 247 27.0
e 204 175 19.0
e 204 194 34.0
e 204 95 23.0
e 204 70 36.0
e 204 271 32.0
e 204 30 33.0
e 204 24 45.0
e 204 140 18.0
e 204 42 17.0
e 204 190 12.0
e 205 181 3.0
e 206 230 1.0
e 207 66 2.0
e 208 25 11.0
e 209 277 2.0
e 210 183 1.0
e 211 244 1.0
e 212 149 4.0
e 213 285 1.0
e 214 317 49.0
e 214 146 1.0
e 215 40 37.0
e 216 25 29.0
e 216 55 20.0
e 216 309 22.0
e 216 113 42.0
e 216 177 38.0
e 216 91 6.0
e 216 35 28.0
e 216 232 40.0
e 216 147 37.0
e 216 136 5.0
e 216 143 38.0
e 216 200 27.0
e 216 182 37.0
e 216 267 8.0
e 216 304 30.0
e 217 176 1.0
e 218 217 1.0
e 219 51 2.0
e 220 97 1.0
e 221 166 2.0
e 222 144 1.0
e 223 27 1.0
e 224 64 1.0
e 225 104 1.0
e 226 50 1.0
e 227 51 1.0
e 228 269 1.0
e 229 69 3.0
e 230 266 1.0
e 231 268 1.0
e 232 290 1.0
e 233 284 1.0
e 234 257 1.0
e 235 133 1.0
e 236 222 1.0
e 237 211 1.0
e 238 144 1.0
e 239 19 1.0
e 240 82 15.0
e 240 84 41.0
e 240 193 11.0
e 240 263 40.0
e 240 135 1.0
e 240 141 34.0
e 240 161 32.0
e 240 176 17.0
e 240 169 17.0
e 240 83 41.0
e 240 126 29.0
e 240 246 44.0
e 240 310 26.0
e 240 255 17.0
e 240 78 34.0
e 241 308 1.0
e 242 71 1.0
e 243 241 2.0
e 244 20 2.0
e 245 156 1.0
e 246 271 3.0
e 247 241 2.0
e 248 71 2.0
e 249 83 1.0
e 250 7 1.0
e 251 168 1.0
e 252 32 2.0
e 253 7 1.0
e 254 109 1.0
e 254 195 1.0
e 255 0 1.0
e 256 283 1.0
e 256 313 1.0
e 257 168 1.0
e 258 149 2.0
e 259 20 2.0
e 260 302 1.0
e 261 81 1.0
e 261 18 2.0
e 262 138 1.0
e 263 257 1.0
e 264 123 35.0
e 264 100 41.0
e 264 198 27.0
e 264 256 24.0
e 264 106 20.0
e 264 305 17.0
e 264 292 28.0
e 264 210 3.0
e 264 73 9.0
e 264 142 15.0
e 264 58 1.0
e 264 318 11.0
e 264 110 30.0
e 264 273 11.0
e 264 260 28.0
e 264 18 7.0
e 264 188 44.0
e 265 40 33.0
e 266 22 1.0
e 267 266 2.0
e 268 205 1.0
e 269 190 1.0
e 270 192 1.0
e 271 188 29.0
e 272 231 1.0
e 273 295 1.0
e 274 257 3.0
e 275 96 8.0
e 276 85 35.0
e 276 113 2.0
e 277 215 2.0
e 278 265 1.0
e 279 185 6.0
e 280 127 12.0
e 280 250 6.0
e 280 179 29.0
e 280 243 27.0
e 280 217 23.0
e 280 102 49.0
e 280 141 28.0
e 280 114 16.0
e 280 145 32.0
e 280 92 41.0
e 280 261 21.0
e 280 242 24.0
e 280 256 33.0
e 280 294 4.0
e 280 240 16.0
e 281 189 1.0
e 282 272 1.0
e 283 49 1.0
e 284 154 1.0
e 285 200 1.0
e 286 0 1.0
e 287 262 2.0
e 288 303 3.0
e 289 202 1.0
e 290 78 2.0
e 291 91 1.0
e 291 26 2.0
e 292 272 1.0
e 293 60 2.0
e 294 218 1.0
e 295 282 1.0
e 296 19 1.0
e 297 196 1.0
e 298 75 1.0
e 299 184 1.0
e 300 10 34.0
e 300 289 19.0
e 300 59 29.0
e 300 73 16.0
e 300 39 1.0
e 300 82 45.0
e 300 98 32.0
e 300 23 18.0
e 300 155 5.0
e 300 140 26.0
e 300 65 35.0
e 300 211 1.0
e 300 2 23.0
e 300 229 29.0
e 300 55 26.0
e 300 299 18.0
e 300 286 13.0
e 301 8 1.0
e 302 156 1.0
e 303 255 1.0
e 304 259 3.0
e 305 307 1.0
e 306 294 1.0
e 307 283 1.0
e 308 155 1.0
e 309 80 1.0
e 310 285 1.0
e 311 56 1.0
e 312 54 1.0
e 313 79 2.0
e 314 76 1.0
e 315 134 2.0
e 316 48 1.0
e 317 287 4.0
e 317 263 9.0
e 317 114 22.0
e 317 118 33.0
e 317 240 3.0
e 317 142 31.0
e 317 99 12.0
e 317 199 11.0
e 317 29 1.0
e 317 44 22.0
e 317 28 44.0
e 317 21 26.0
e 317 84 42.0
e 317 174 48.0
e 318 120 2.0
e 319 188 20.0
e 319 11 1.0
